CMPL model generation - running

CMPL version: 1.11.0
Authors: Thomas Schleiff, Mike Steglich
Distributed under the GPLv3 

create model instance ...
write model instance ...
CMPL model generation - finished

Solver - running


Welcome to IBM(R) ILOG(R) CPLEX(R) Interactive Optimizer 12.7.1.0
  with Simplex, Mixed Integer & Barrier Optimizers
5725-A06 5725-A29 5724-Y48 5724-Y49 5724-Y54 5724-Y55 5655-Y21
Copyright IBM Corp. 1988, 2017.  All Rights Reserved.

Type 'help' for a list of available commands.
Type 'help' followed by a command name for more
information on commands.

CPLEX> Specified objective sense: MINIMIZE
Selected objective  name:  line[1]
Selected RHS        name:  RHS
Selected bound      name:  BOUND
Problem '/tmp/cmpl.T23554.mps' read.
Read time = 0.05 sec. (8.16 ticks)
CPLEX> CPXPARAM_Read_APIEncoding                        "UTF-8"
Tried aggregator 3 times.
MIP Presolve eliminated 19311 rows and 30826 columns.
MIP Presolve modified 340 coefficients.
Aggregator did 580 substitutions.
Reduced MIP has 2464 rows, 3187 columns, and 9325 nonzeros.
Reduced MIP has 3019 binaries, 0 generals, 0 SOSs, and 0 indicators.
Presolve time = 0.05 sec. (44.36 ticks)
Found incumbent of value 936.018799 after 0.10 sec. (103.14 ticks)
Probing fixed 5 vars, tightened 0 bounds.
Probing time = 0.01 sec. (4.02 ticks)
Tried aggregator 1 time.
MIP Presolve eliminated 0 rows and 5 columns.
MIP Presolve modified 22 coefficients.
Reduced MIP has 2464 rows, 3182 columns, and 9315 nonzeros.
Reduced MIP has 3182 binaries, 0 generals, 0 SOSs, and 0 indicators.
Presolve time = 0.01 sec. (7.99 ticks)
Probing time = 0.01 sec. (2.67 ticks)
Clique table members: 5300.
MIP emphasis: balance optimality and feasibility.
MIP search method: dynamic search.
Parallel mode: none, using 1 thread.
Root relaxation solution time = 0.00 sec. (4.24 ticks)

        Nodes                                         Cuts/
   Node  Left     Objective  IInf  Best Integer    Best Bound    ItCnt     Gap

*     0+    0                          936.0188      -26.3973           102.82%
      0     0       37.7300    16      936.0188       37.7300       69   95.97%
*     0+    0                           65.6812       37.7300            42.56%
*     0+    0                           38.1872       37.7300             1.20%
      0     0        cutoff             38.1872                     72    0.00%
Elapsed time = 0.17 sec. (140.07 ticks, tree = 0.01 MB, solutions = 3)

Cover cuts applied:  4
Gomory fractional cuts applied:  2

Root node processing (before b&c):
  Real time             =    0.17 sec. (141.55 ticks)
Sequential b&c:
  Real time             =    0.00 sec. (0.00 ticks)
                          ------------
Total (root+branch&cut) =    0.17 sec. (141.55 ticks)

Solution pool: 3 solutions saved.

MIP - Integer optimal solution:  Objective =  3.8187184000e+01
Solution time =    0.17 sec.  Iterations = 72  Nodes = 0
Deterministic time = 141.65 ticks  (811.25 ticks/sec)

CPLEX> Incumbent solution written to file '/tmp/cmpl.T23554.gsol'.
CPLEX> 
CMPL: Time used for model generation: 1 seconds
CMPL: Time used for solving the model: 0 seconds


Solution written to ASCII file: results/output_generated_conf_0.1/2017-08-07-4/fair-nonlinear.sol

Solver - finished
